p cnf 65 235
-4 2 0
-4 -3 0
-2 3 4 0
5 -1 0
5 -4 0
1 4 -5 0
-6 -5 0
-6 5 0
8 4 0
8 -1 0
-4 1 -8 0
-9 -4 0
-9 -8 0
4 8 9 0
-10 -2 0
-10 9 0
2 -9 10 0
12 -10 0
12 -11 0
10 11 -12 0
7 12 -13 0
-7 -12 -13 0
7 -12 13 0
-7 12 13 0
14 -3 0
14 11 0
3 -11 -14 0
15 14 0
15 9 0
-14 -9 -15 0
16 -12 -17 0
-16 12 -17 0
16 12 17 0
-16 -12 17 0
18 -15 0
18 17 0
15 -17 -18 0
-19 13 0
-19 18 0
-13 -18 19 0
-20 -6 0
-20 -19 0
6 19 20 0
7 -9 -21 0
-7 9 -21 0
7 9 21 0
-7 -9 21 0
-23 -21 0
-23 -22 0
21 22 23 0
-24 15 0
-24 -2 0
-15 2 24 0
2 24 -25 0
-2 -24 -25 0
2 -24 25 0
-2 24 25 0
26 -25 0
26 5 0
25 -5 -26 0
23 26 -27 0
-23 -26 -27 0
23 -26 27 0
-23 26 27 0
28 -20 0
28 -27 0
20 27 -28 0
7 29 -30 0
-7 -29 -30 0
7 -29 30 0
-7 29 30 0
31 -30 0
31 -22 0
30 22 -31 0
-24 -31 -32 0
24 31 -32 0
-24 31 32 0
24 -31 32 0
-33 -32 0
-33 29 0
32 -29 33 0
34 -2 0
34 -22 0
2 22 -34 0
-35 33 0
-35 34 0
-33 -34 35 0
37 36 0
37 -25 0
-36 25 -37 0
-38 -22 0
-38 7 0
22 -7 38 0
-37 38 -39 0
37 -38 -39 0
-37 -38 39 0
37 38 39 0
-40 14 0
-40 1 0
-14 -1 40 0
-39 -40 -41 0
39 40 -41 0
-39 40 41 0
39 -40 41 0
16 -42 -43 0
-16 42 -43 0
16 42 43 0
-16 -42 43 0
44 -43 0
44 7 0
43 -7 -44 0
45 16 0
45 -44 0
-16 44 -45 0
46 -7 0
46 42 0
7 -42 -46 0
-47 -7 0
-47 -46 0
7 46 47 0
-45 -47 -48 0
45 47 -48 0
-45 47 48 0
45 -47 48 0
-49 41 0
-49 48 0
-41 -48 49 0
50 -3 0
50 -17 0
3 17 -50 0
3 22 -51 0
-3 -22 -51 0
3 -22 51 0
-3 22 51 0
52 50 0
52 51 0
-50 -51 -52 0
-53 -49 0
-53 -52 0
49 52 53 0
54 12 0
54 -14 0
-12 14 -54 0
55 -9 0
55 -3 0
9 3 -55 0
56 -54 0
56 55 0
54 -55 -56 0
-29 -16 -57 0
29 16 -57 0
-29 16 57 0
29 -16 57 0
58 3 0
58 57 0
-3 -57 -58 0
30 -58 -59 0
-30 58 -59 0
30 58 59 0
-30 -58 59 0
56 -59 -60 0
-56 59 -60 0
56 59 60 0
-56 -59 60 0
-61 4 0
-61 29 0
-4 -29 61 0
62 60 0
62 -61 0
-60 61 -62 0
63 53 0
63 62 0
-53 -62 -63 0
-35 -63 -64 0
35 63 -64 0
-35 63 64 0
35 -63 64 0
-65 28 0
-65 -64 0
-28 64 65 0
65 -13 55 0
-13 14 0
20 13 -7 60 3 0
50 -34 9 18 0
-9 -11 0
-28 -5 8 -25 20 0
-35 29 -9 61 44 23 0
3 52 -6 -27 0
29 1 -56 7 0
64 -19 3 11 -29 0
-24 -31 -45 0
26 32 28 -38 2 60 0
-59 47 37 2 -41 -26 0
-3 28 29 38 -31 11 0
1 -47 18 33 0
8 -16 -43 0
64 21 36 -62 -6 0
39 60 26 0
6 45 55 0
-63 50 34 0
-10 19 0
55 9 58 0
34 -59 -17 6 0
-25 27 0
-63 26 0
58 -48 54 0
45 -4 31 0
-35 7 30 -21 -3 0
-20 -18 -61 5 -10 0
51 -21 14 0
-54 -33 27 -5 45 46 0
35 31 33 63 -7 0
28 32 -59 3 -19 43 0
-63 36 55 -49 35 51 0
55 -49 51 0
-7 30 62 -13 0
61 -33 -52 5 35 34 0
-25 60 -34 41 0
30 -43 -56 -10 -52 0
58 5 -43 -39 -15 56 0
49 -44 0
-35 -37 0
7 -30 0
63 -43 -28 53 0
35 23 31 0
53 -10 60 0
-46 30 53 0
45 -17 53 -11 -26 0
-19 -59 -30 41 -18 0
-23 -47 -39 -44 0
-31 10 55 -60 -59 -37 0
-41 5 16 8 -4 43 0
-17 2 1 58 -5 0
56 -1 52 -16 -64 0
65 0
